0,1
4,1
8,2
0,2
0,2
1,0
7,0
9,0
5,0
1,1
7,2
0,2
9,2
5,2
0,2
8,3
0,3
0,3
5,1
3,1
9,1
7,1
0,2
0,5
0,5
6,3
4,3
2,1
8,1
7,4
1,5
9,5
5,5
3,6
0,6
6,6
0,4
6,4
1,4
8,4
0,5
0,6
0,6
7,6
0,6
3,4
5,4
2,4
6,5
0,5
4,5
0,9
0,6
8,6
9,4
0,7
3,7
4,7
8,8
7,8
6,9
5,9
1,9
0,7
1,7
5,7
0,8
6,8
9,8
4,9
8,9
3,9
8,7
9,7
6,7
0,8
4,8
0,8
1,8
0,9
7,9